Gurobi 9.1.2 (linux64) logging started Fri Mar  4 11:35:53 2022

Gurobi Optimizer version 9.1.2 build v9.1.2rc0 (linux64)
Thread count: 12 physical cores, 24 logical processors, using up to 1 threads
Optimize a model with 20895 rows, 20895 columns and 240810 nonzeros
Model fingerprint: 0xf63d7626
Model has 211121 quadratic objective terms
Variable types: 20815 continuous, 80 integer (80 binary)
Coefficient statistics:
  Matrix range     [4e-04, 1e+00]
  Objective range  [1e-37, 2e-03]
  QObjective range [2e-06, 4e-05]
  Bounds range     [1e+00, 1e+00]
  RHS range        [2e+00, 2e+00]
Found heuristic solution: objective 23.9009495
Presolve removed 5056 rows and 5056 columns
Presolve time: 0.56s
Presolved: 15839 rows, 15839 columns, 216412 nonzeros
Presolved model has 158018 quadratic objective terms
Variable types: 15759 continuous, 80 integer (80 binary)
Warning: Markowitz tolerance tightened to 0.125
Warning: Markowitz tolerance tightened to 0.5

Root simplex log...

Iteration    Objective       Primal Inf.    Dual Inf.      Time
    6418    2.2290373e+01   0.000000e+00   1.176788e+06      6s
    8517    1.8532831e+01   0.000000e+00   5.953593e+02     10s
   10440    1.4147004e+01   0.000000e+00   6.238218e+02     16s
   12138    1.4147004e+01   0.000000e+00   1.010363e+03     21s
   13304    1.4147004e+01   0.000000e+00   7.085563e+02     25s
   14683    1.4147004e+01   0.000000e+00   5.497759e+02     31s
   15176    1.4147004e+01   0.000000e+00   2.127052e+03     35s
   15912    1.4147004e+01   0.000000e+00   1.900147e+03     42s
   16369    1.4147004e+01   0.000000e+00   1.041388e+03     47s
   16858    1.4147004e+01   0.000000e+00   3.518971e+03     52s
   17074    7.3261738e+00   0.000000e+00   0.000000e+00     57s
   17079    7.3315640e+00   0.000000e+00   0.000000e+00     58s

Root relaxation: objective 7.331564e+00, 17079 iterations, 57.17 seconds

    Nodes    |    Current Node    |     Objective Bounds      |     Work
 Expl Unexpl |  Obj  Depth IntInf | Incumbent    BestBd   Gap | It/Node Time

     0     0    7.33156    0   80   23.90095    7.33156  69.3%     -   58s
     0     0    7.36049    0   80   23.90095    7.36049  69.2%     -   65s
H    0     0                      12.3409519    7.36049  40.4%     -   71s
     0     0    7.39061    0   80   12.34095    7.39061  40.1%     -   75s
     0     0    7.42909    0   80   12.34095    7.42909  39.8%     -   80s
     0     0    7.48907    0   80   12.34095    7.48907  39.3%     -   84s
     0     0    7.52500    0   80   12.34095    7.52500  39.0%     -   91s
     0     0    7.54302    0   80   12.34095    7.54302  38.9%     -   98s
     0     0    7.56758    0   80   12.34095    7.56758  38.7%     -  102s
     0     0    7.57412    0   80   12.34095    7.57412  38.6%     -  111s
     0     0    7.57493    0   80   12.34095    7.57493  38.6%     -  117s
     0     0    7.58981    0   80   12.34095    7.58981  38.5%     -  121s
     0     0    7.59594    0   80   12.34095    7.59594  38.4%     -  131s
     0     0    7.61168    0   80   12.34095    7.61168  38.3%     -  136s
     0     0    7.64408    0   80   12.34095    7.64408  38.1%     -  146s
     0     0    7.65276    0   80   12.34095    7.65276  38.0%     -  154s
     0     0    7.68001    0   80   12.34095    7.68001  37.8%     -  160s
     0     0    7.68532    0   80   12.34095    7.68532  37.7%     -  167s
     0     0    7.69906    0   80   12.34095    7.69906  37.6%     -  172s
     0     0    7.70635    0   80   12.34095    7.70635  37.6%     -  182s
     0     0    7.70921    0   80   12.34095    7.70921  37.5%     -  192s
     0     0    7.72379    0   80   12.34095    7.72379  37.4%     -  199s
     0     0    7.75133    0   80   12.34095    7.75133  37.2%     -  205s
     0     0    7.77749    0   80   12.34095    7.77749  37.0%     -  213s
     0     0    7.78111    0   80   12.34095    7.78111  36.9%     -  228s
     0     0    7.79206    0   80   12.34095    7.79206  36.9%     -  235s
     0     0    7.82430    0   80   12.34095    7.82430  36.6%     -  245s
     0     0    7.82718    0   80   12.34095    7.82718  36.6%     -  255s
     0     0    7.85060    0   80   12.34095    7.85060  36.4%     -  261s
     0     0    7.86395    0   80   12.34095    7.86395  36.3%     -  268s
     0     0    7.86408    0   80   12.34095    7.86408  36.3%     -  274s
     0     0    7.88355    0   80   12.34095    7.88355  36.1%     -  281s
     0     0    7.88417    0   80   12.34095    7.88417  36.1%     -  293s
     0     0    7.89753    0   80   12.34095    7.89753  36.0%     -  399s
     0     0    7.90937    0   80   12.34095    7.90937  35.9%     -  410s
     0     0    7.92608    0   80   12.34095    7.92608  35.8%     -  421s
     0     0    7.95075    0   80   12.34095    7.95075  35.6%     -  432s
     0     0    7.95078    0   80   12.34095    7.95078  35.6%     -  444s
     0     0    7.97729    0   80   12.34095    7.97729  35.4%     -  450s
     0     0    8.01465    0   80   12.34095    8.01465  35.1%     -  463s
     0     0    8.04249    0   80   12.34095    8.04249  34.8%     -  474s
     0     0    8.04654    0   80   12.34095    8.04654  34.8%     -  486s
     0     0    8.07211    0   80   12.34095    8.07211  34.6%     -  495s
     0     0    8.07238    0   80   12.34095    8.07238  34.6%     -  507s
     0     0    8.08559    0   80   12.34095    8.08559  34.5%     -  518s
     0     0    8.09933    0   80   12.34095    8.09933  34.4%     -  526s
     0     0    8.10727    0   80   12.34095    8.10727  34.3%     -  538s
     0     0    8.11389    0   80   12.34095    8.11389  34.3%     -  551s
     0     0    8.13086    0   80   12.34095    8.13086  34.1%     -  559s
     0     0    8.13317    0   80   12.34095    8.13317  34.1%     -  568s
     0     0    8.14320    0   80   12.34095    8.14320  34.0%     -  579s
     0     0    8.15616    0   80   12.34095    8.15616  33.9%     -  591s
     0     0    8.15733    0   80   12.34095    8.15733  33.9%     -  603s
     0     0    8.17279    0   80   12.34095    8.17279  33.8%     -  611s
     0     0    8.17316    0   80   12.34095    8.17316  33.8%     -  623s
     0     0    8.18760    0   80   12.34095    8.18760  33.7%     -  632s
     0     0    8.18797    0   80   12.34095    8.18797  33.7%     -  643s
     0     0    8.20170    0   80   12.34095    8.20170  33.5%     -  651s
     0     0    8.20213    0   80   12.34095    8.20213  33.5%     -  662s
     0     0    8.20992    0   80   12.34095    8.20992  33.5%     -  670s
     0     0    8.22030    0   80   12.34095    8.22030  33.4%     -  681s
     0     0    8.23135    0   80   12.34095    8.23135  33.3%     -  695s
     0     0    8.23769    0   80   12.34095    8.23769  33.2%     -  708s
     0     0    8.23772    0   80   12.34095    8.23772  33.2%     -  718s
     0     0    8.25394    0   80   12.34095    8.25394  33.1%     -  728s
     0     0    8.25396    0   80   12.34095    8.25396  33.1%     -  739s
     0     0    8.26307    0   80   12.34095    8.26307  33.0%     -  748s
     0     0    8.28055    0   80   12.34095    8.28055  32.9%     -  764s
     0     0    8.29084    0   80   12.34095    8.29084  32.8%     -  775s
     0     0    8.29119    0   80   12.34095    8.29119  32.8%     -  787s
     0     0    8.31394    0   80   12.34095    8.31394  32.6%     -  796s
     0     0    8.31456    0   80   12.34095    8.31456  32.6%     -  807s
     0     0    8.31992    0   80   12.34095    8.31992  32.6%     -  818s
     0     0    8.33575    0   80   12.34095    8.33575  32.5%     -  830s
     0     0    8.33666    0   80   12.34095    8.33666  32.4%     -  842s
     0     0    8.35351    0   80   12.34095    8.35351  32.3%     -  857s
     0     0    8.35409    0   80   12.34095    8.35409  32.3%     -  869s
     0     0    8.36122    0   80   12.34095    8.36122  32.2%     -  882s
     0     0    8.36122    0   80   12.34095    8.36122  32.2%     -  893s
     0     0    8.37503    0   80   12.34095    8.37503  32.1%     -  900s
     0     0    8.38011    0   80   12.34095    8.38011  32.1%     -  915s
     0     0    8.38025    0   80   12.34095    8.38025  32.1%     -  926s
     0     0    8.38030    0   80   12.34095    8.38030  32.1%     -  935s
     0     0    8.39528    0   80   12.34095    8.39528  32.0%     -  943s
     0     0    8.39560    0   80   12.34095    8.39560  32.0%     -  957s
     0     0    8.41230    0   80   12.34095    8.41230  31.8%     -  967s
     0     0    8.41547    0   80   12.34095    8.41547  31.8%     -  979s
     0     0    8.42571    0   80   12.34095    8.42571  31.7%     -  998s
     0     0    8.43911    0   80   12.34095    8.43911  31.6%     - 1022s
     0     0    8.43934    0   80   12.34095    8.43934  31.6%     - 1035s
     0     0    8.45732    0   80   12.34095    8.45732  31.5%     - 1044s
     0     0    8.46538    0   80   12.34095    8.46538  31.4%     - 1056s
     0     0    8.47289    0   80   12.34095    8.47289  31.3%     - 1074s
     0     0    8.47325    0   80   12.34095    8.47325  31.3%     - 1085s
     0     0    8.47326    0   80   12.34095    8.47326  31.3%     - 1096s
     0     0    8.47842    0   80   12.34095    8.47842  31.3%     - 1105s
     0     0    8.48238    0   80   12.34095    8.48238  31.3%     - 1118s
     0     0    8.48390    0   80   12.34095    8.48390  31.3%     - 1133s
     0     0    8.48391    0   80   12.34095    8.48391  31.3%     - 1141s
     0     0    8.48685    0   80   12.34095    8.48685  31.2%     - 1151s
     0     0    8.48963    0   80   12.34095    8.48963  31.2%     - 1166s
     0     0    8.49029    0   80   12.34095    8.49029  31.2%     - 1183s
     0     0    8.51011    0   80   12.34095    8.51011  31.0%     - 1191s
     0     0    8.51587    0   80   12.34095    8.51587  31.0%     - 1209s
     0     0    8.51593    0   80   12.34095    8.51593  31.0%     - 1218s
     0     0    8.53451    0   80   12.34095    8.53451  30.8%     - 1227s
     0     0    8.53510    0   80   12.34095    8.53510  30.8%     - 1240s
     0     0    8.54225    0   80   12.34095    8.54225  30.8%     - 1258s
     0     0    8.54229    0   80   12.34095    8.54229  30.8%     - 1272s
     0     0    8.55166    0   80   12.34095    8.55166  30.7%     - 1281s
     0     0    8.55193    0   80   12.34095    8.55193  30.7%     - 1296s
     0     0    8.56181    0   80   12.34095    8.56181  30.6%     - 1307s
     0     0    8.56691    0   80   12.34095    8.56691  30.6%     - 1324s
     0     0    8.57009    0   80   12.34095    8.57009  30.6%     - 1336s
     0     0    8.57195    0   80   12.34095    8.57195  30.5%     - 1352s
     0     0    8.57773    0   80   12.34095    8.57773  30.5%     - 1365s
     0     0    8.58346    0   80   12.34095    8.58346  30.4%     - 1380s
     0     0    8.59048    0   80   12.34095    8.59048  30.4%     - 1393s
     0     0    8.59054    0   80   12.34095    8.59054  30.4%     - 1409s
     0     0    8.59488    0   80   12.34095    8.59488  30.4%     - 1418s
     0     0    8.59826    0   80   12.34095    8.59826  30.3%     - 1432s
     0     0    8.59892    0   80   12.34095    8.59892  30.3%     - 1445s
     0     0    8.59895    0   80   12.34095    8.59895  30.3%     - 1475s
     0     0    8.60294    0   80   12.34095    8.60294  30.3%     - 1487s
     0     0    8.60475    0   80   12.34095    8.60475  30.3%     - 1502s
     0     0    8.60723    0   80   12.34095    8.60723  30.3%     - 1515s
     0     0    8.60725    0   80   12.34095    8.60725  30.3%     - 1524s
     0     0    8.61400    0   80   12.34095    8.61400  30.2%     - 1534s
     0     0    8.61413    0   80   12.34095    8.61413  30.2%     - 1546s
     0     0    8.62000    0   80   12.34095    8.62000  30.2%     - 1557s
     0     0    8.62527    0   80   12.34095    8.62527  30.1%     - 1573s
     0     0    8.62542    0   80   12.34095    8.62542  30.1%     - 1582s
     0     0    8.62892    0   80   12.34095    8.62892  30.1%     - 1592s
     0     0    8.62894    0   80   12.34095    8.62894  30.1%     - 1603s
     0     0    8.63341    0   80   12.34095    8.63341  30.0%     - 1613s
     0     0    8.63802    0   80   12.34095    8.63802  30.0%     - 1632s
     0     0    8.64415    0   80   12.34095    8.64415  30.0%     - 1648s
     0     0    8.65297    0   80   12.34095    8.65297  29.9%     - 1661s
     0     0    8.66590    0   80   12.34095    8.66590  29.8%     - 1677s
     0     0    8.66724    0   80   12.34095    8.66724  29.8%     - 1691s
     0     0    8.67247    0   80   12.34095    8.67247  29.7%     - 1701s
     0     0    8.68048    0   80   12.34095    8.68048  29.7%     - 1718s
     0     0    8.68676    0   80   12.34095    8.68676  29.6%     - 1734s
     0     0    8.69310    0   80   12.34095    8.69310  29.6%     - 1747s
     0     0    8.69599    0   80   12.34095    8.69599  29.5%     - 1764s
     0     0    8.69775    0   80   12.34095    8.69775  29.5%     - 1783s
     0     0    8.69790    0   80   12.34095    8.69790  29.5%     - 1798s
     0     0    8.71694    0   80   12.34095    8.71694  29.4%     - 1807s
     0     0    8.72050    0   80   12.34095    8.72050  29.3%     - 1824s
     0     0    8.72057    0   80   12.34095    8.72057  29.3%     - 1837s
     0     0    8.72756    0   80   12.34095    8.72756  29.3%     - 1850s
     0     0    8.73050    0   80   12.34095    8.73050  29.3%     - 1866s
     0     0    8.73722    0   80   12.34095    8.73722  29.2%     - 1882s
     0     0    8.73866    0   80   12.34095    8.73866  29.2%     - 1899s
     0     0    8.73891    0   80   12.34095    8.73891  29.2%     - 1908s
     0     0    8.73892    0   80   12.34095    8.73892  29.2%     - 1921s
     0     0    8.74606    0   80   12.34095    8.74606  29.1%     - 1931s
     0     0    8.74729    0   80   12.34095    8.74729  29.1%     - 1946s
     0     0    8.75930    0   80   12.34095    8.75930  29.0%     - 1957s
     0     0    8.76029    0   80   12.34095    8.76029  29.0%     - 1972s
     0     0    8.76637    0   80   12.34095    8.76637  29.0%     - 1988s
     0     0    8.76667    0   80   12.34095    8.76667  29.0%     - 2007s
     0     0    8.76671    0   80   12.34095    8.76671  29.0%     - 2024s
     0     0    8.77499    0   80   12.34095    8.77499  28.9%     - 2038s
     0     0    8.78362    0   80   12.34095    8.78362  28.8%     - 2056s
     0     0    8.78568    0   80   12.34095    8.78568  28.8%     - 2071s
     0     0    8.78569    0   80   12.34095    8.78569  28.8%     - 2088s
     0     0    8.78921    0   80   12.34095    8.78921  28.8%     - 2100s
     0     0    8.78960    0   80   12.34095    8.78960  28.8%     - 2119s
     0     0    8.79298    0   80   12.34095    8.79298  28.7%     - 2131s
     0     0    8.79299    0   80   12.34095    8.79299  28.7%     - 2145s
     0     0    8.79800    0   80   12.34095    8.79800  28.7%     - 2161s
     0     0    8.79851    0   80   12.34095    8.79851  28.7%     - 2179s
     0     0    8.80196    0   80   12.34095    8.80196  28.7%     - 2198s
     0     0    8.80713    0   80   12.34095    8.80713  28.6%     - 2218s
     0     0    8.80934    0   80   12.34095    8.80934  28.6%     - 2234s
     0     0    8.81568    0   80   12.34095    8.81568  28.6%     - 2253s
     0     0    8.81771    0   80   12.34095    8.81771  28.5%     - 2272s
     0     0    8.82836    0   80   12.34095    8.82836  28.5%     - 2291s
     0     0    8.82836    0   80   12.34095    8.82836  28.5%     - 2310s
     0     0    8.83364    0   80   12.34095    8.83364  28.4%     - 2323s
     0     0    8.83368    0   80   12.34095    8.83368  28.4%     - 2342s
     0     0    8.83653    0   80   12.34095    8.83653  28.4%     - 2355s
     0     0    8.83673    0   80   12.34095    8.83673  28.4%     - 2367s
     0     0    8.84743    0   80   12.34095    8.84743  28.3%     - 2380s
     0     0    8.84746    0   80   12.34095    8.84746  28.3%     - 2393s
     0     0    8.85494    0   80   12.34095    8.85494  28.2%     - 2405s
     0     0    8.85719    0   80   12.34095    8.85719  28.2%     - 2424s
     0     0    8.86285    0   80   12.34095    8.86285  28.2%     - 2442s
     0     0    8.86312    0   80   12.34095    8.86312  28.2%     - 2462s
     0     0    8.87256    0   80   12.34095    8.87256  28.1%     - 2478s
     0     0    8.87656    0   80   12.34095    8.87656  28.1%     - 2496s
     0     0    8.88234    0   80   12.34095    8.88234  28.0%     - 2507s
     0     2   10.05267    0   48   12.34095   10.05267  18.5%     - 2823s
     1     3   12.25936    1   12   12.34095   11.97844  2.94%   125 2825s
     5     4   12.30473    4    2   12.34095   11.97844  2.94%  33.6 2830s
*    7     3               6      12.3055829   11.97844  2.66%  24.7 2832s
     9     1     cutoff    1        12.30558   12.27955  0.21%  25.6 2835s

Cutting planes:
  Network: 44

Explored 11 nodes (38160 simplex iterations) in 2837.12 seconds
Thread count was 1 (of 24 available processors)

Solution count 3: 12.3056 12.341 23.9009 

Optimal solution found (tolerance 1.00e-04)
Best objective 1.230558288878e+01, best bound 1.230558288878e+01, gap 0.0000%
